p cnf 114 2698
-20 -21 0
-20 -22 0
-20 -23 0
-20 -24 0
-20 -25 0
-20 -26 0
-20 -27 0
-20 -28 0
-20 -29 0
-20 -30 0
-20 -31 0
-20 -32 0
-20 -33 0
-20 -34 0
-20 -35 0
-20 -36 0
-20 -37 0
-20 -38 0
-21 -22 0
-21 -23 0
-21 -24 0
-21 -25 0
-21 -26 0
-21 -27 0
-21 -28 0
-21 -29 0
-21 -30 0
-21 -31 0
-21 -32 0
-21 -33 0
-21 -34 0
-21 -35 0
-21 -36 0
-21 -37 0
-21 -38 0
-22 -23 0
-22 -24 0
-22 -25 0
-22 -26 0
-22 -27 0
-22 -28 0
-22 -29 0
-22 -30 0
-22 -31 0
-22 -32 0
-22 -33 0
-22 -34 0
-22 -35 0
-22 -36 0
-22 -37 0
-22 -38 0
-23 -24 0
-23 -25 0
-23 -26 0
-23 -27 0
-23 -28 0
-23 -29 0
-23 -30 0
-23 -31 0
-23 -32 0
-23 -33 0
-23 -34 0
-23 -35 0
-23 -36 0
-23 -37 0
-23 -38 0
-24 -25 0
-24 -26 0
-24 -27 0
-24 -28 0
-24 -29 0
-24 -30 0
-24 -31 0
-24 -32 0
-24 -33 0
-24 -34 0
-24 -35 0
-24 -36 0
-24 -37 0
-24 -38 0
-25 -26 0
-25 -27 0
-25 -28 0
-25 -29 0
-25 -30 0
-25 -31 0
-25 -32 0
-25 -33 0
-25 -34 0
-25 -35 0
-25 -36 0
-25 -37 0
-25 -38 0
-26 -27 0
-26 -28 0
-26 -29 0
-26 -30 0
-26 -31 0
-26 -32 0
-26 -33 0
-26 -34 0
-26 -35 0
-26 -36 0
-26 -37 0
-26 -38 0
-27 -28 0
-27 -29 0
-27 -30 0
-27 -31 0
-27 -32 0
-27 -33 0
-27 -34 0
-27 -35 0
-27 -36 0
-27 -37 0
-27 -38 0
-28 -29 0
-28 -30 0
-28 -31 0
-28 -32 0
-28 -33 0
-28 -34 0
-28 -35 0
-28 -36 0
-28 -37 0
-28 -38 0
-29 -30 0
-29 -31 0
-29 -32 0
-29 -33 0
-29 -34 0
-29 -35 0
-29 -36 0
-29 -37 0
-29 -38 0
-30 -31 0
-30 -32 0
-30 -33 0
-30 -34 0
-30 -35 0
-30 -36 0
-30 -37 0
-30 -38 0
-31 -32 0
-31 -33 0
-31 -34 0
-31 -35 0
-31 -36 0
-31 -37 0
-31 -38 0
-32 -33 0
-32 -34 0
-32 -35 0
-32 -36 0
-32 -37 0
-32 -38 0
-33 -34 0
-33 -35 0
-33 -36 0
-33 -37 0
-33 -38 0
-34 -35 0
-34 -36 0
-34 -37 0
-34 -38 0
-35 -36 0
-35 -37 0
-35 -38 0
-36 -37 0
-36 -38 0
-37 -38 0
-39 -40 0
-39 -41 0
-39 -42 0
-39 -43 0
-39 -44 0
-39 -45 0
-39 -46 0
-39 -47 0
-39 -48 0
-39 -49 0
-39 -50 0
-39 -51 0
-39 -52 0
-39 -53 0
-39 -54 0
-39 -55 0
-39 -56 0
-39 -57 0
-40 -41 0
-40 -42 0
-40 -43 0
-40 -44 0
-40 -45 0
-40 -46 0
-40 -47 0
-40 -48 0
-40 -49 0
-40 -50 0
-40 -51 0
-40 -52 0
-40 -53 0
-40 -54 0
-40 -55 0
-40 -56 0
-40 -57 0
-41 -42 0
-41 -43 0
-41 -44 0
-41 -45 0
-41 -46 0
-41 -47 0
-41 -48 0
-41 -49 0
-41 -50 0
-41 -51 0
-41 -52 0
-41 -53 0
-41 -54 0
-41 -55 0
-41 -56 0
-41 -57 0
-42 -43 0
-42 -44 0
-42 -45 0
-42 -46 0
-42 -47 0
-42 -48 0
-42 -49 0
-42 -50 0
-42 -51 0
-42 -52 0
-42 -53 0
-42 -54 0
-42 -55 0
-42 -56 0
-42 -57 0
-43 -44 0
-43 -45 0
-43 -46 0
-43 -47 0
-43 -48 0
-43 -49 0
-43 -50 0
-43 -51 0
-43 -52 0
-43 -53 0
-43 -54 0
-43 -55 0
-43 -56 0
-43 -57 0
-44 -45 0
-44 -46 0
-44 -47 0
-44 -48 0
-44 -49 0
-44 -50 0
-44 -51 0
-44 -52 0
-44 -53 0
-44 -54 0
-44 -55 0
-44 -56 0
-44 -57 0
-45 -46 0
-45 -47 0
-45 -48 0
-45 -49 0
-45 -50 0
-45 -51 0
-45 -52 0
-45 -53 0
-45 -54 0
-45 -55 0
-45 -56 0
-45 -57 0
-46 -47 0
-46 -48 0
-46 -49 0
-46 -50 0
-46 -51 0
-46 -52 0
-46 -53 0
-46 -54 0
-46 -55 0
-46 -56 0
-46 -57 0
-47 -48 0
-47 -49 0
-47 -50 0
-47 -51 0
-47 -52 0
-47 -53 0
-47 -54 0
-47 -55 0
-47 -56 0
-47 -57 0
-48 -49 0
-48 -50 0
-48 -51 0
-48 -52 0
-48 -53 0
-48 -54 0
-48 -55 0
-48 -56 0
-48 -57 0
-49 -50 0
-49 -51 0
-49 -52 0
-49 -53 0
-49 -54 0
-49 -55 0
-49 -56 0
-49 -57 0
-50 -51 0
-50 -52 0
-50 -53 0
-50 -54 0
-50 -55 0
-50 -56 0
-50 -57 0
-51 -52 0
-51 -53 0
-51 -54 0
-51 -55 0
-51 -56 0
-51 -57 0
-52 -53 0
-52 -54 0
-52 -55 0
-52 -56 0
-52 -57 0
-53 -54 0
-53 -55 0
-53 -56 0
-53 -57 0
-54 -55 0
-54 -56 0
-54 -57 0
-55 -56 0
-55 -57 0
-56 -57 0
-58 -59 0
-58 -60 0
-58 -61 0
-58 -62 0
-58 -63 0
-58 -64 0
-58 -65 0
-58 -66 0
-58 -67 0
-58 -68 0
-58 -69 0
-58 -70 0
-58 -71 0
-58 -72 0
-58 -73 0
-58 -74 0
-58 -75 0
-58 -76 0
-59 -60 0
-59 -61 0
-59 -62 0
-59 -63 0
-59 -64 0
-59 -65 0
-59 -66 0
-59 -67 0
-59 -68 0
-59 -69 0
-59 -70 0
-59 -71 0
-59 -72 0
-59 -73 0
-59 -74 0
-59 -75 0
-59 -76 0
-60 -61 0
-60 -62 0
-60 -63 0
-60 -64 0
-60 -65 0
-60 -66 0
-60 -67 0
-60 -68 0
-60 -69 0
-60 -70 0
-60 -71 0
-60 -72 0
-60 -73 0
-60 -74 0
-60 -75 0
-60 -76 0
-61 -62 0
-61 -63 0
-61 -64 0
-61 -65 0
-61 -66 0
-61 -67 0
-61 -68 0
-61 -69 0
-61 -70 0
-61 -71 0
-61 -72 0
-61 -73 0
-61 -74 0
-61 -75 0
-61 -76 0
-62 -63 0
-62 -64 0
-62 -65 0
-62 -66 0
-62 -67 0
-62 -68 0
-62 -69 0
-62 -70 0
-62 -71 0
-62 -72 0
-62 -73 0
-62 -74 0
-62 -75 0
-62 -76 0
-63 -64 0
-63 -65 0
-63 -66 0
-63 -67 0
-63 -68 0
-63 -69 0
-63 -70 0
-63 -71 0
-63 -72 0
-63 -73 0
-63 -74 0
-63 -75 0
-63 -76 0
-64 -65 0
-64 -66 0
-64 -67 0
-64 -68 0
-64 -69 0
-64 -70 0
-64 -71 0
-64 -72 0
-64 -73 0
-64 -74 0
-64 -75 0
-64 -76 0
-65 -66 0
-65 -67 0
-65 -68 0
-65 -69 0
-65 -70 0
-65 -71 0
-65 -72 0
-65 -73 0
-65 -74 0
-65 -75 0
-65 -76 0
-66 -67 0
-66 -68 0
-66 -69 0
-66 -70 0
-66 -71 0
-66 -72 0
-66 -73 0
-66 -74 0
-66 -75 0
-66 -76 0
-67 -68 0
-67 -69 0
-67 -70 0
-67 -71 0
-67 -72 0
-67 -73 0
-67 -74 0
-67 -75 0
-67 -76 0
-68 -69 0
-68 -70 0
-68 -71 0
-68 -72 0
-68 -73 0
-68 -74 0
-68 -75 0
-68 -76 0
-69 -70 0
-69 -71 0
-69 -72 0
-69 -73 0
-69 -74 0
-69 -75 0
-69 -76 0
-70 -71 0
-70 -72 0
-70 -73 0
-70 -74 0
-70 -75 0
-70 -76 0
-71 -72 0
-71 -73 0
-71 -74 0
-71 -75 0
-71 -76 0
-72 -73 0
-72 -74 0
-72 -75 0
-72 -76 0
-73 -74 0
-73 -75 0
-73 -76 0
-74 -75 0
-74 -76 0
-75 -76 0
-77 -78 0
-77 -79 0
-77 -80 0
-77 -81 0
-77 -82 0
-77 -83 0
-77 -84 0
-77 -85 0
-77 -86 0
-77 -87 0
-77 -88 0
-77 -89 0
-77 -90 0
-77 -91 0
-77 -92 0
-77 -93 0
-77 -94 0
-77 -95 0
-78 -79 0
-78 -80 0
-78 -81 0
-78 -82 0
-78 -83 0
-78 -84 0
-78 -85 0
-78 -86 0
-78 -87 0
-78 -88 0
-78 -89 0
-78 -90 0
-78 -91 0
-78 -92 0
-78 -93 0
-78 -94 0
-78 -95 0
-79 -80 0
-79 -81 0
-79 -82 0
-79 -83 0
-79 -84 0
-79 -85 0
-79 -86 0
-79 -87 0
-79 -88 0
-79 -89 0
-79 -90 0
-79 -91 0
-79 -92 0
-79 -93 0
-79 -94 0
-79 -95 0
-80 -81 0
-80 -82 0
-80 -83 0
-80 -84 0
-80 -85 0
-80 -86 0
-80 -87 0
-80 -88 0
-80 -89 0
-80 -90 0
-80 -91 0
-80 -92 0
-80 -93 0
-80 -94 0
-80 -95 0
-81 -82 0
-81 -83 0
-81 -84 0
-81 -85 0
-81 -86 0
-81 -87 0
-81 -88 0
-81 -89 0
-81 -90 0
-81 -91 0
-81 -92 0
-81 -93 0
-81 -94 0
-81 -95 0
-82 -83 0
-82 -84 0
-82 -85 0
-82 -86 0
-82 -87 0
-82 -88 0
-82 -89 0
-82 -90 0
-82 -91 0
-82 -92 0
-82 -93 0
-82 -94 0
-82 -95 0
-83 -84 0
-83 -85 0
-83 -86 0
-83 -87 0
-83 -88 0
-83 -89 0
-83 -90 0
-83 -91 0
-83 -92 0
-83 -93 0
-83 -94 0
-83 -95 0
-84 -85 0
-84 -86 0
-84 -87 0
-84 -88 0
-84 -89 0
-84 -90 0
-84 -91 0
-84 -92 0
-84 -93 0
-84 -94 0
-84 -95 0
-85 -86 0
-85 -87 0
-85 -88 0
-85 -89 0
-85 -90 0
-85 -91 0
-85 -92 0
-85 -93 0
-85 -94 0
-85 -95 0
-86 -87 0
-86 -88 0
-86 -89 0
-86 -90 0
-86 -91 0
-86 -92 0
-86 -93 0
-86 -94 0
-86 -95 0
-87 -88 0
-87 -89 0
-87 -90 0
-87 -91 0
-87 -92 0
-87 -93 0
-87 -94 0
-87 -95 0
-88 -89 0
-88 -90 0
-88 -91 0
-88 -92 0
-88 -93 0
-88 -94 0
-88 -95 0
-89 -90 0
-89 -91 0
-89 -92 0
-89 -93 0
-89 -94 0
-89 -95 0
-90 -91 0
-90 -92 0
-90 -93 0
-90 -94 0
-90 -95 0
-91 -92 0
-91 -93 0
-91 -94 0
-91 -95 0
-92 -93 0
-92 -94 0
-92 -95 0
-93 -94 0
-93 -95 0
-94 -95 0
-96 -97 0
-96 -98 0
-96 -99 0
-96 -100 0
-96 -101 0
-96 -102 0
-96 -103 0
-96 -104 0
-96 -105 0
-96 -106 0
-96 -107 0
-96 -108 0
-96 -109 0
-96 -110 0
-96 -111 0
-96 -112 0
-96 -113 0
-96 -114 0
-97 -98 0
-97 -99 0
-97 -100 0
-97 -101 0
-97 -102 0
-97 -103 0
-97 -104 0
-97 -105 0
-97 -106 0
-97 -107 0
-97 -108 0
-97 -109 0
-97 -110 0
-97 -111 0
-97 -112 0
-97 -113 0
-97 -114 0
-98 -99 0
-98 -100 0
-98 -101 0
-98 -102 0
-98 -103 0
-98 -104 0
-98 -105 0
-98 -106 0
-98 -107 0
-98 -108 0
-98 -109 0
-98 -110 0
-98 -111 0
-98 -112 0
-98 -113 0
-98 -114 0
-99 -100 0
-99 -101 0
-99 -102 0
-99 -103 0
-99 -104 0
-99 -105 0
-99 -106 0
-99 -107 0
-99 -108 0
-99 -109 0
-99 -110 0
-99 -111 0
-99 -112 0
-99 -113 0
-99 -114 0
-100 -101 0
-100 -102 0
-100 -103 0
-100 -104 0
-100 -105 0
-100 -106 0
-100 -107 0
-100 -108 0
-100 -109 0
-100 -110 0
-100 -111 0
-100 -112 0
-100 -113 0
-100 -114 0
-101 -102 0
-101 -103 0
-101 -104 0
-101 -105 0
-101 -106 0
-101 -107 0
-101 -108 0
-101 -109 0
-101 -110 0
-101 -111 0
-101 -112 0
-101 -113 0
-101 -114 0
-102 -103 0
-102 -104 0
-102 -105 0
-102 -106 0
-102 -107 0
-102 -108 0
-102 -109 0
-102 -110 0
-102 -111 0
-102 -112 0
-102 -113 0
-102 -114 0
-103 -104 0
-103 -105 0
-103 -106 0
-103 -107 0
-103 -108 0
-103 -109 0
-103 -110 0
-103 -111 0
-103 -112 0
-103 -113 0
-103 -114 0
-104 -105 0
-104 -106 0
-104 -107 0
-104 -108 0
-104 -109 0
-104 -110 0
-104 -111 0
-104 -112 0
-104 -113 0
-104 -114 0
-105 -106 0
-105 -107 0
-105 -108 0
-105 -109 0
-105 -110 0
-105 -111 0
-105 -112 0
-105 -113 0
-105 -114 0
-106 -107 0
-106 -108 0
-106 -109 0
-106 -110 0
-106 -111 0
-106 -112 0
-106 -113 0
-106 -114 0
-107 -108 0
-107 -109 0
-107 -110 0
-107 -111 0
-107 -112 0
-107 -113 0
-107 -114 0
-108 -109 0
-108 -110 0
-108 -111 0
-108 -112 0
-108 -113 0
-108 -114 0
-109 -110 0
-109 -111 0
-109 -112 0
-109 -113 0
-109 -114 0
-110 -111 0
-110 -112 0
-110 -113 0
-110 -114 0
-111 -112 0
-111 -113 0
-111 -114 0
-112 -113 0
-112 -114 0
-113 -114 0
-21 -39 0
-22 -39 0
-23 -39 0
-24 -39 0
-25 -39 0
-26 -39 0
-27 -39 0
-28 -39 0
-29 -39 0
-30 -39 0
-31 -39 0
-32 -39 0
-33 -39 0
-34 -39 0
-35 -39 0
-36 -39 0
-37 -39 0
-38 -39 0
-22 -40 0
-23 -40 0
-24 -40 0
-25 -40 0
-26 -40 0
-27 -40 0
-28 -40 0
-29 -40 0
-30 -40 0
-31 -40 0
-32 -40 0
-33 -40 0
-34 -40 0
-35 -40 0
-36 -40 0
-37 -40 0
-38 -40 0
-23 -41 0
-24 -41 0
-25 -41 0
-26 -41 0
-27 -41 0
-28 -41 0
-29 -41 0
-30 -41 0
-31 -41 0
-32 -41 0
-33 -41 0
-34 -41 0
-35 -41 0
-36 -41 0
-37 -41 0
-38 -41 0
-24 -42 0
-25 -42 0
-26 -42 0
-27 -42 0
-28 -42 0
-29 -42 0
-30 -42 0
-31 -42 0
-32 -42 0
-33 -42 0
-34 -42 0
-35 -42 0
-36 -42 0
-37 -42 0
-38 -42 0
-25 -43 0
-26 -43 0
-27 -43 0
-28 -43 0
-29 -43 0
-30 -43 0
-31 -43 0
-32 -43 0
-33 -43 0
-34 -43 0
-35 -43 0
-36 -43 0
-37 -43 0
-38 -43 0
-26 -44 0
-27 -44 0
-28 -44 0
-29 -44 0
-30 -44 0
-31 -44 0
-32 -44 0
-33 -44 0
-34 -44 0
-35 -44 0
-36 -44 0
-37 -44 0
-38 -44 0
-27 -45 0
-28 -45 0
-29 -45 0
-30 -45 0
-31 -45 0
-32 -45 0
-33 -45 0
-34 -45 0
-35 -45 0
-36 -45 0
-37 -45 0
-38 -45 0
-28 -46 0
-29 -46 0
-30 -46 0
-31 -46 0
-32 -46 0
-33 -46 0
-34 -46 0
-35 -46 0
-36 -46 0
-37 -46 0
-38 -46 0
-29 -47 0
-30 -47 0
-31 -47 0
-32 -47 0
-33 -47 0
-34 -47 0
-35 -47 0
-36 -47 0
-37 -47 0
-38 -47 0
-30 -48 0
-31 -48 0
-32 -48 0
-33 -48 0
-34 -48 0
-35 -48 0
-36 -48 0
-37 -48 0
-38 -48 0
-31 -49 0
-32 -49 0
-33 -49 0
-34 -49 0
-35 -49 0
-36 -49 0
-37 -49 0
-38 -49 0
-32 -50 0
-33 -50 0
-34 -50 0
-35 -50 0
-36 -50 0
-37 -50 0
-38 -50 0
-33 -51 0
-34 -51 0
-35 -51 0
-36 -51 0
-37 -51 0
-38 -51 0
-34 -52 0
-35 -52 0
-36 -52 0
-37 -52 0
-38 -52 0
-35 -53 0
-36 -53 0
-37 -53 0
-38 -53 0
-36 -54 0
-37 -54 0
-38 -54 0
-37 -55 0
-38 -55 0
-38 -56 0
-21 -58 0
-22 -58 0
-23 -58 0
-24 -58 0
-25 -58 0
-26 -58 0
-27 -58 0
-28 -58 0
-29 -58 0
-30 -58 0
-31 -58 0
-32 -58 0
-33 -58 0
-34 -58 0
-35 -58 0
-36 -58 0
-37 -58 0
-38 -58 0
-22 -59 0
-23 -59 0
-24 -59 0
-25 -59 0
-26 -59 0
-27 -59 0
-28 -59 0
-29 -59 0
-30 -59 0
-31 -59 0
-32 -59 0
-33 -59 0
-34 -59 0
-35 -59 0
-36 -59 0
-37 -59 0
-38 -59 0
-23 -60 0
-24 -60 0
-25 -60 0
-26 -60 0
-27 -60 0
-28 -60 0
-29 -60 0
-30 -60 0
-31 -60 0
-32 -60 0
-33 -60 0
-34 -60 0
-35 -60 0
-36 -60 0
-37 -60 0
-38 -60 0
-24 -61 0
-25 -61 0
-26 -61 0
-27 -61 0
-28 -61 0
-29 -61 0
-30 -61 0
-31 -61 0
-32 -61 0
-33 -61 0
-34 -61 0
-35 -61 0
-36 -61 0
-37 -61 0
-38 -61 0
-25 -62 0
-26 -62 0
-27 -62 0
-28 -62 0
-29 -62 0
-30 -62 0
-31 -62 0
-32 -62 0
-33 -62 0
-34 -62 0
-35 -62 0
-36 -62 0
-37 -62 0
-38 -62 0
-26 -63 0
-27 -63 0
-28 -63 0
-29 -63 0
-30 -63 0
-31 -63 0
-32 -63 0
-33 -63 0
-34 -63 0
-35 -63 0
-36 -63 0
-37 -63 0
-38 -63 0
-27 -64 0
-28 -64 0
-29 -64 0
-30 -64 0
-31 -64 0
-32 -64 0
-33 -64 0
-34 -64 0
-35 -64 0
-36 -64 0
-37 -64 0
-38 -64 0
-28 -65 0
-29 -65 0
-30 -65 0
-31 -65 0
-32 -65 0
-33 -65 0
-34 -65 0
-35 -65 0
-36 -65 0
-37 -65 0
-38 -65 0
-29 -66 0
-30 -66 0
-31 -66 0
-32 -66 0
-33 -66 0
-34 -66 0
-35 -66 0
-36 -66 0
-37 -66 0
-38 -66 0
-30 -67 0
-31 -67 0
-32 -67 0
-33 -67 0
-34 -67 0
-35 -67 0
-36 -67 0
-37 -67 0
-38 -67 0
-31 -68 0
-32 -68 0
-33 -68 0
-34 -68 0
-35 -68 0
-36 -68 0
-37 -68 0
-38 -68 0
-32 -69 0
-33 -69 0
-34 -69 0
-35 -69 0
-36 -69 0
-37 -69 0
-38 -69 0
-33 -70 0
-34 -70 0
-35 -70 0
-36 -70 0
-37 -70 0
-38 -70 0
-34 -71 0
-35 -71 0
-36 -71 0
-37 -71 0
-38 -71 0
-35 -72 0
-36 -72 0
-37 -72 0
-38 -72 0
-36 -73 0
-37 -73 0
-38 -73 0
-37 -74 0
-38 -74 0
-38 -75 0
-21 -77 0
-22 -77 0
-23 -77 0
-24 -77 0
-25 -77 0
-26 -77 0
-27 -77 0
-28 -77 0
-29 -77 0
-30 -77 0
-31 -77 0
-32 -77 0
-33 -77 0
-34 -77 0
-35 -77 0
-36 -77 0
-37 -77 0
-38 -77 0
-22 -78 0
-23 -78 0
-24 -78 0
-25 -78 0
-26 -78 0
-27 -78 0
-28 -78 0
-29 -78 0
-30 -78 0
-31 -78 0
-32 -78 0
-33 -78 0
-34 -78 0
-35 -78 0
-36 -78 0
-37 -78 0
-38 -78 0
-23 -79 0
-24 -79 0
-25 -79 0
-26 -79 0
-27 -79 0
-28 -79 0
-29 -79 0
-30 -79 0
-31 -79 0
-32 -79 0
-33 -79 0
-34 -79 0
-35 -79 0
-36 -79 0
-37 -79 0
-38 -79 0
-24 -80 0
-25 -80 0
-26 -80 0
-27 -80 0
-28 -80 0
-29 -80 0
-30 -80 0
-31 -80 0
-32 -80 0
-33 -80 0
-34 -80 0
-35 -80 0
-36 -80 0
-37 -80 0
-38 -80 0
-25 -81 0
-26 -81 0
-27 -81 0
-28 -81 0
-29 -81 0
-30 -81 0
-31 -81 0
-32 -81 0
-33 -81 0
-34 -81 0
-35 -81 0
-36 -81 0
-37 -81 0
-38 -81 0
-26 -82 0
-27 -82 0
-28 -82 0
-29 -82 0
-30 -82 0
-31 -82 0
-32 -82 0
-33 -82 0
-34 -82 0
-35 -82 0
-36 -82 0
-37 -82 0
-38 -82 0
-27 -83 0
-28 -83 0
-29 -83 0
-30 -83 0
-31 -83 0
-32 -83 0
-33 -83 0
-34 -83 0
-35 -83 0
-36 -83 0
-37 -83 0
-38 -83 0
-28 -84 0
-29 -84 0
-30 -84 0
-31 -84 0
-32 -84 0
-33 -84 0
-34 -84 0
-35 -84 0
-36 -84 0
-37 -84 0
-38 -84 0
-29 -85 0
-30 -85 0
-31 -85 0
-32 -85 0
-33 -85 0
-34 -85 0
-35 -85 0
-36 -85 0
-37 -85 0
-38 -85 0
-30 -86 0
-31 -86 0
-32 -86 0
-33 -86 0
-34 -86 0
-35 -86 0
-36 -86 0
-37 -86 0
-38 -86 0
-31 -87 0
-32 -87 0
-33 -87 0
-34 -87 0
-35 -87 0
-36 -87 0
-37 -87 0
-38 -87 0
-32 -88 0
-33 -88 0
-34 -88 0
-35 -88 0
-36 -88 0
-37 -88 0
-38 -88 0
-33 -89 0
-34 -89 0
-35 -89 0
-36 -89 0
-37 -89 0
-38 -89 0
-34 -90 0
-35 -90 0
-36 -90 0
-37 -90 0
-38 -90 0
-35 -91 0
-36 -91 0
-37 -91 0
-38 -91 0
-36 -92 0
-37 -92 0
-38 -92 0
-37 -93 0
-38 -93 0
-38 -94 0
-21 -96 0
-22 -96 0
-23 -96 0
-24 -96 0
-25 -96 0
-26 -96 0
-27 -96 0
-28 -96 0
-29 -96 0
-30 -96 0
-31 -96 0
-32 -96 0
-33 -96 0
-34 -96 0
-35 -96 0
-36 -96 0
-37 -96 0
-38 -96 0
-22 -97 0
-23 -97 0
-24 -97 0
-25 -97 0
-26 -97 0
-27 -97 0
-28 -97 0
-29 -97 0
-30 -97 0
-31 -97 0
-32 -97 0
-33 -97 0
-34 -97 0
-35 -97 0
-36 -97 0
-37 -97 0
-38 -97 0
-23 -98 0
-24 -98 0
-25 -98 0
-26 -98 0
-27 -98 0
-28 -98 0
-29 -98 0
-30 -98 0
-31 -98 0
-32 -98 0
-33 -98 0
-34 -98 0
-35 -98 0
-36 -98 0
-37 -98 0
-38 -98 0
-24 -99 0
-25 -99 0
-26 -99 0
-27 -99 0
-28 -99 0
-29 -99 0
-30 -99 0
-31 -99 0
-32 -99 0
-33 -99 0
-34 -99 0
-35 -99 0
-36 -99 0
-37 -99 0
-38 -99 0
-25 -100 0
-26 -100 0
-27 -100 0
-28 -100 0
-29 -100 0
-30 -100 0
-31 -100 0
-32 -100 0
-33 -100 0
-34 -100 0
-35 -100 0
-36 -100 0
-37 -100 0
-38 -100 0
-26 -101 0
-27 -101 0
-28 -101 0
-29 -101 0
-30 -101 0
-31 -101 0
-32 -101 0
-33 -101 0
-34 -101 0
-35 -101 0
-36 -101 0
-37 -101 0
-38 -101 0
-27 -102 0
-28 -102 0
-29 -102 0
-30 -102 0
-31 -102 0
-32 -102 0
-33 -102 0
-34 -102 0
-35 -102 0
-36 -102 0
-37 -102 0
-38 -102 0
-28 -103 0
-29 -103 0
-30 -103 0
-31 -103 0
-32 -103 0
-33 -103 0
-34 -103 0
-35 -103 0
-36 -103 0
-37 -103 0
-38 -103 0
-29 -104 0
-30 -104 0
-31 -104 0
-32 -104 0
-33 -104 0
-34 -104 0
-35 -104 0
-36 -104 0
-37 -104 0
-38 -104 0
-30 -105 0
-31 -105 0
-32 -105 0
-33 -105 0
-34 -105 0
-35 -105 0
-36 -105 0
-37 -105 0
-38 -105 0
-31 -106 0
-32 -106 0
-33 -106 0
-34 -106 0
-35 -106 0
-36 -106 0
-37 -106 0
-38 -106 0
-32 -107 0
-33 -107 0
-34 -107 0
-35 -107 0
-36 -107 0
-37 -107 0
-38 -107 0
-33 -108 0
-34 -108 0
-35 -108 0
-36 -108 0
-37 -108 0
-38 -108 0
-34 -109 0
-35 -109 0
-36 -109 0
-37 -109 0
-38 -109 0
-35 -110 0
-36 -110 0
-37 -110 0
-38 -110 0
-36 -111 0
-37 -111 0
-38 -111 0
-37 -112 0
-38 -112 0
-38 -113 0
-40 -58 0
-41 -58 0
-42 -58 0
-43 -58 0
-44 -58 0
-45 -58 0
-46 -58 0
-47 -58 0
-48 -58 0
-49 -58 0
-50 -58 0
-51 -58 0
-52 -58 0
-53 -58 0
-54 -58 0
-55 -58 0
-56 -58 0
-57 -58 0
-41 -59 0
-42 -59 0
-43 -59 0
-44 -59 0
-45 -59 0
-46 -59 0
-47 -59 0
-48 -59 0
-49 -59 0
-50 -59 0
-51 -59 0
-52 -59 0
-53 -59 0
-54 -59 0
-55 -59 0
-56 -59 0
-57 -59 0
-42 -60 0
-43 -60 0
-44 -60 0
-45 -60 0
-46 -60 0
-47 -60 0
-48 -60 0
-49 -60 0
-50 -60 0
-51 -60 0
-52 -60 0
-53 -60 0
-54 -60 0
-55 -60 0
-56 -60 0
-57 -60 0
-43 -61 0
-44 -61 0
-45 -61 0
-46 -61 0
-47 -61 0
-48 -61 0
-49 -61 0
-50 -61 0
-51 -61 0
-52 -61 0
-53 -61 0
-54 -61 0
-55 -61 0
-56 -61 0
-57 -61 0
-44 -62 0
-45 -62 0
-46 -62 0
-47 -62 0
-48 -62 0
-49 -62 0
-50 -62 0
-51 -62 0
-52 -62 0
-53 -62 0
-54 -62 0
-55 -62 0
-56 -62 0
-57 -62 0
-45 -63 0
-46 -63 0
-47 -63 0
-48 -63 0
-49 -63 0
-50 -63 0
-51 -63 0
-52 -63 0
-53 -63 0
-54 -63 0
-55 -63 0
-56 -63 0
-57 -63 0
-46 -64 0
-47 -64 0
-48 -64 0
-49 -64 0
-50 -64 0
-51 -64 0
-52 -64 0
-53 -64 0
-54 -64 0
-55 -64 0
-56 -64 0
-57 -64 0
-47 -65 0
-48 -65 0
-49 -65 0
-50 -65 0
-51 -65 0
-52 -65 0
-53 -65 0
-54 -65 0
-55 -65 0
-56 -65 0
-57 -65 0
-48 -66 0
-49 -66 0
-50 -66 0
-51 -66 0
-52 -66 0
-53 -66 0
-54 -66 0
-55 -66 0
-56 -66 0
-57 -66 0
-49 -67 0
-50 -67 0
-51 -67 0
-52 -67 0
-53 -67 0
-54 -67 0
-55 -67 0
-56 -67 0
-57 -67 0
-50 -68 0
-51 -68 0
-52 -68 0
-53 -68 0
-54 -68 0
-55 -68 0
-56 -68 0
-57 -68 0
-51 -69 0
-52 -69 0
-53 -69 0
-54 -69 0
-55 -69 0
-56 -69 0
-57 -69 0
-52 -70 0
-53 -70 0
-54 -70 0
-55 -70 0
-56 -70 0
-57 -70 0
-53 -71 0
-54 -71 0
-55 -71 0
-56 -71 0
-57 -71 0
-54 -72 0
-55 -72 0
-56 -72 0
-57 -72 0
-55 -73 0
-56 -73 0
-57 -73 0
-56 -74 0
-57 -74 0
-57 -75 0
-40 -77 0
-41 -77 0
-42 -77 0
-43 -77 0
-44 -77 0
-45 -77 0
-46 -77 0
-47 -77 0
-48 -77 0
-49 -77 0
-50 -77 0
-51 -77 0
-52 -77 0
-53 -77 0
-54 -77 0
-55 -77 0
-56 -77 0
-57 -77 0
-41 -78 0
-42 -78 0
-43 -78 0
-44 -78 0
-45 -78 0
-46 -78 0
-47 -78 0
-48 -78 0
-49 -78 0
-50 -78 0
-51 -78 0
-52 -78 0
-53 -78 0
-54 -78 0
-55 -78 0
-56 -78 0
-57 -78 0
-42 -79 0
-43 -79 0
-44 -79 0
-45 -79 0
-46 -79 0
-47 -79 0
-48 -79 0
-49 -79 0
-50 -79 0
-51 -79 0
-52 -79 0
-53 -79 0
-54 -79 0
-55 -79 0
-56 -79 0
-57 -79 0
-43 -80 0
-44 -80 0
-45 -80 0
-46 -80 0
-47 -80 0
-48 -80 0
-49 -80 0
-50 -80 0
-51 -80 0
-52 -80 0
-53 -80 0
-54 -80 0
-55 -80 0
-56 -80 0
-57 -80 0
-44 -81 0
-45 -81 0
-46 -81 0
-47 -81 0
-48 -81 0
-49 -81 0
-50 -81 0
-51 -81 0
-52 -81 0
-53 -81 0
-54 -81 0
-55 -81 0
-56 -81 0
-57 -81 0
-45 -82 0
-46 -82 0
-47 -82 0
-48 -82 0
-49 -82 0
-50 -82 0
-51 -82 0
-52 -82 0
-53 -82 0
-54 -82 0
-55 -82 0
-56 -82 0
-57 -82 0
-46 -83 0
-47 -83 0
-48 -83 0
-49 -83 0
-50 -83 0
-51 -83 0
-52 -83 0
-53 -83 0
-54 -83 0
-55 -83 0
-56 -83 0
-57 -83 0
-47 -84 0
-48 -84 0
-49 -84 0
-50 -84 0
-51 -84 0
-52 -84 0
-53 -84 0
-54 -84 0
-55 -84 0
-56 -84 0
-57 -84 0
-48 -85 0
-49 -85 0
-50 -85 0
-51 -85 0
-52 -85 0
-53 -85 0
-54 -85 0
-55 -85 0
-56 -85 0
-57 -85 0
-49 -86 0
-50 -86 0
-51 -86 0
-52 -86 0
-53 -86 0
-54 -86 0
-55 -86 0
-56 -86 0
-57 -86 0
-50 -87 0
-51 -87 0
-52 -87 0
-53 -87 0
-54 -87 0
-55 -87 0
-56 -87 0
-57 -87 0
-51 -88 0
-52 -88 0
-53 -88 0
-54 -88 0
-55 -88 0
-56 -88 0
-57 -88 0
-52 -89 0
-53 -89 0
-54 -89 0
-55 -89 0
-56 -89 0
-57 -89 0
-53 -90 0
-54 -90 0
-55 -90 0
-56 -90 0
-57 -90 0
-54 -91 0
-55 -91 0
-56 -91 0
-57 -91 0
-55 -92 0
-56 -92 0
-57 -92 0
-56 -93 0
-57 -93 0
-57 -94 0
-40 -96 0
-41 -96 0
-42 -96 0
-43 -96 0
-44 -96 0
-45 -96 0
-46 -96 0
-47 -96 0
-48 -96 0
-49 -96 0
-50 -96 0
-51 -96 0
-52 -96 0
-53 -96 0
-54 -96 0
-55 -96 0
-56 -96 0
-57 -96 0
-41 -97 0
-42 -97 0
-43 -97 0
-44 -97 0
-45 -97 0
-46 -97 0
-47 -97 0
-48 -97 0
-49 -97 0
-50 -97 0
-51 -97 0
-52 -97 0
-53 -97 0
-54 -97 0
-55 -97 0
-56 -97 0
-57 -97 0
-42 -98 0
-43 -98 0
-44 -98 0
-45 -98 0
-46 -98 0
-47 -98 0
-48 -98 0
-49 -98 0
-50 -98 0
-51 -98 0
-52 -98 0
-53 -98 0
-54 -98 0
-55 -98 0
-56 -98 0
-57 -98 0
-43 -99 0
-44 -99 0
-45 -99 0
-46 -99 0
-47 -99 0
-48 -99 0
-49 -99 0
-50 -99 0
-51 -99 0
-52 -99 0
-53 -99 0
-54 -99 0
-55 -99 0
-56 -99 0
-57 -99 0
-44 -100 0
-45 -100 0
-46 -100 0
-47 -100 0
-48 -100 0
-49 -100 0
-50 -100 0
-51 -100 0
-52 -100 0
-53 -100 0
-54 -100 0
-55 -100 0
-56 -100 0
-57 -100 0
-45 -101 0
-46 -101 0
-47 -101 0
-48 -101 0
-49 -101 0
-50 -101 0
-51 -101 0
-52 -101 0
-53 -101 0
-54 -101 0
-55 -101 0
-56 -101 0
-57 -101 0
-46 -102 0
-47 -102 0
-48 -102 0
-49 -102 0
-50 -102 0
-51 -102 0
-52 -102 0
-53 -102 0
-54 -102 0
-55 -102 0
-56 -102 0
-57 -102 0
-47 -103 0
-48 -103 0
-49 -103 0
-50 -103 0
-51 -103 0
-52 -103 0
-53 -103 0
-54 -103 0
-55 -103 0
-56 -103 0
-57 -103 0
-48 -104 0
-49 -104 0
-50 -104 0
-51 -104 0
-52 -104 0
-53 -104 0
-54 -104 0
-55 -104 0
-56 -104 0
-57 -104 0
-49 -105 0
-50 -105 0
-51 -105 0
-52 -105 0
-53 -105 0
-54 -105 0
-55 -105 0
-56 -105 0
-57 -105 0
-50 -106 0
-51 -106 0
-52 -106 0
-53 -106 0
-54 -106 0
-55 -106 0
-56 -106 0
-57 -106 0
-51 -107 0
-52 -107 0
-53 -107 0
-54 -107 0
-55 -107 0
-56 -107 0
-57 -107 0
-52 -108 0
-53 -108 0
-54 -108 0
-55 -108 0
-56 -108 0
-57 -108 0
-53 -109 0
-54 -109 0
-55 -109 0
-56 -109 0
-57 -109 0
-54 -110 0
-55 -110 0
-56 -110 0
-57 -110 0
-55 -111 0
-56 -111 0
-57 -111 0
-56 -112 0
-57 -112 0
-57 -113 0
-59 -77 0
-60 -77 0
-61 -77 0
-62 -77 0
-63 -77 0
-64 -77 0
-65 -77 0
-66 -77 0
-67 -77 0
-68 -77 0
-69 -77 0
-70 -77 0
-71 -77 0
-72 -77 0
-73 -77 0
-74 -77 0
-75 -77 0
-76 -77 0
-60 -78 0
-61 -78 0
-62 -78 0
-63 -78 0
-64 -78 0
-65 -78 0
-66 -78 0
-67 -78 0
-68 -78 0
-69 -78 0
-70 -78 0
-71 -78 0
-72 -78 0
-73 -78 0
-74 -78 0
-75 -78 0
-76 -78 0
-61 -79 0
-62 -79 0
-63 -79 0
-64 -79 0
-65 -79 0
-66 -79 0
-67 -79 0
-68 -79 0
-69 -79 0
-70 -79 0
-71 -79 0
-72 -79 0
-73 -79 0
-74 -79 0
-75 -79 0
-76 -79 0
-62 -80 0
-63 -80 0
-64 -80 0
-65 -80 0
-66 -80 0
-67 -80 0
-68 -80 0
-69 -80 0
-70 -80 0
-71 -80 0
-72 -80 0
-73 -80 0
-74 -80 0
-75 -80 0
-76 -80 0
-63 -81 0
-64 -81 0
-65 -81 0
-66 -81 0
-67 -81 0
-68 -81 0
-69 -81 0
-70 -81 0
-71 -81 0
-72 -81 0
-73 -81 0
-74 -81 0
-75 -81 0
-76 -81 0
-64 -82 0
-65 -82 0
-66 -82 0
-67 -82 0
-68 -82 0
-69 -82 0
-70 -82 0
-71 -82 0
-72 -82 0
-73 -82 0
-74 -82 0
-75 -82 0
-76 -82 0
-65 -83 0
-66 -83 0
-67 -83 0
-68 -83 0
-69 -83 0
-70 -83 0
-71 -83 0
-72 -83 0
-73 -83 0
-74 -83 0
-75 -83 0
-76 -83 0
-66 -84 0
-67 -84 0
-68 -84 0
-69 -84 0
-70 -84 0
-71 -84 0
-72 -84 0
-73 -84 0
-74 -84 0
-75 -84 0
-76 -84 0
-67 -85 0
-68 -85 0
-69 -85 0
-70 -85 0
-71 -85 0
-72 -85 0
-73 -85 0
-74 -85 0
-75 -85 0
-76 -85 0
-68 -86 0
-69 -86 0
-70 -86 0
-71 -86 0
-72 -86 0
-73 -86 0
-74 -86 0
-75 -86 0
-76 -86 0
-69 -87 0
-70 -87 0
-71 -87 0
-72 -87 0
-73 -87 0
-74 -87 0
-75 -87 0
-76 -87 0
-70 -88 0
-71 -88 0
-72 -88 0
-73 -88 0
-74 -88 0
-75 -88 0
-76 -88 0
-71 -89 0
-72 -89 0
-73 -89 0
-74 -89 0
-75 -89 0
-76 -89 0
-72 -90 0
-73 -90 0
-74 -90 0
-75 -90 0
-76 -90 0
-73 -91 0
-74 -91 0
-75 -91 0
-76 -91 0
-74 -92 0
-75 -92 0
-76 -92 0
-75 -93 0
-76 -93 0
-76 -94 0
-59 -96 0
-60 -96 0
-61 -96 0
-62 -96 0
-63 -96 0
-64 -96 0
-65 -96 0
-66 -96 0
-67 -96 0
-68 -96 0
-69 -96 0
-70 -96 0
-71 -96 0
-72 -96 0
-73 -96 0
-74 -96 0
-75 -96 0
-76 -96 0
-60 -97 0
-61 -97 0
-62 -97 0
-63 -97 0
-64 -97 0
-65 -97 0
-66 -97 0
-67 -97 0
-68 -97 0
-69 -97 0
-70 -97 0
-71 -97 0
-72 -97 0
-73 -97 0
-74 -97 0
-75 -97 0
-76 -97 0
-61 -98 0
-62 -98 0
-63 -98 0
-64 -98 0
-65 -98 0
-66 -98 0
-67 -98 0
-68 -98 0
-69 -98 0
-70 -98 0
-71 -98 0
-72 -98 0
-73 -98 0
-74 -98 0
-75 -98 0
-76 -98 0
-62 -99 0
-63 -99 0
-64 -99 0
-65 -99 0
-66 -99 0
-67 -99 0
-68 -99 0
-69 -99 0
-70 -99 0
-71 -99 0
-72 -99 0
-73 -99 0
-74 -99 0
-75 -99 0
-76 -99 0
-63 -100 0
-64 -100 0
-65 -100 0
-66 -100 0
-67 -100 0
-68 -100 0
-69 -100 0
-70 -100 0
-71 -100 0
-72 -100 0
-73 -100 0
-74 -100 0
-75 -100 0
-76 -100 0
-64 -101 0
-65 -101 0
-66 -101 0
-67 -101 0
-68 -101 0
-69 -101 0
-70 -101 0
-71 -101 0
-72 -101 0
-73 -101 0
-74 -101 0
-75 -101 0
-76 -101 0
-65 -102 0
-66 -102 0
-67 -102 0
-68 -102 0
-69 -102 0
-70 -102 0
-71 -102 0
-72 -102 0
-73 -102 0
-74 -102 0
-75 -102 0
-76 -102 0
-66 -103 0
-67 -103 0
-68 -103 0
-69 -103 0
-70 -103 0
-71 -103 0
-72 -103 0
-73 -103 0
-74 -103 0
-75 -103 0
-76 -103 0
-67 -104 0
-68 -104 0
-69 -104 0
-70 -104 0
-71 -104 0
-72 -104 0
-73 -104 0
-74 -104 0
-75 -104 0
-76 -104 0
-68 -105 0
-69 -105 0
-70 -105 0
-71 -105 0
-72 -105 0
-73 -105 0
-74 -105 0
-75 -105 0
-76 -105 0
-69 -106 0
-70 -106 0
-71 -106 0
-72 -106 0
-73 -106 0
-74 -106 0
-75 -106 0
-76 -106 0
-70 -107 0
-71 -107 0
-72 -107 0
-73 -107 0
-74 -107 0
-75 -107 0
-76 -107 0
-71 -108 0
-72 -108 0
-73 -108 0
-74 -108 0
-75 -108 0
-76 -108 0
-72 -109 0
-73 -109 0
-74 -109 0
-75 -109 0
-76 -109 0
-73 -110 0
-74 -110 0
-75 -110 0
-76 -110 0
-74 -111 0
-75 -111 0
-76 -111 0
-75 -112 0
-76 -112 0
-76 -113 0
-78 -96 0
-79 -96 0
-80 -96 0
-81 -96 0
-82 -96 0
-83 -96 0
-84 -96 0
-85 -96 0
-86 -96 0
-87 -96 0
-88 -96 0
-89 -96 0
-90 -96 0
-91 -96 0
-92 -96 0
-93 -96 0
-94 -96 0
-95 -96 0
-79 -97 0
-80 -97 0
-81 -97 0
-82 -97 0
-83 -97 0
-84 -97 0
-85 -97 0
-86 -97 0
-87 -97 0
-88 -97 0
-89 -97 0
-90 -97 0
-91 -97 0
-92 -97 0
-93 -97 0
-94 -97 0
-95 -97 0
-80 -98 0
-81 -98 0
-82 -98 0
-83 -98 0
-84 -98 0
-85 -98 0
-86 -98 0
-87 -98 0
-88 -98 0
-89 -98 0
-90 -98 0
-91 -98 0
-92 -98 0
-93 -98 0
-94 -98 0
-95 -98 0
-81 -99 0
-82 -99 0
-83 -99 0
-84 -99 0
-85 -99 0
-86 -99 0
-87 -99 0
-88 -99 0
-89 -99 0
-90 -99 0
-91 -99 0
-92 -99 0
-93 -99 0
-94 -99 0
-95 -99 0
-82 -100 0
-83 -100 0
-84 -100 0
-85 -100 0
-86 -100 0
-87 -100 0
-88 -100 0
-89 -100 0
-90 -100 0
-91 -100 0
-92 -100 0
-93 -100 0
-94 -100 0
-95 -100 0
-83 -101 0
-84 -101 0
-85 -101 0
-86 -101 0
-87 -101 0
-88 -101 0
-89 -101 0
-90 -101 0
-91 -101 0
-92 -101 0
-93 -101 0
-94 -101 0
-95 -101 0
-84 -102 0
-85 -102 0
-86 -102 0
-87 -102 0
-88 -102 0
-89 -102 0
-90 -102 0
-91 -102 0
-92 -102 0
-93 -102 0
-94 -102 0
-95 -102 0
-85 -103 0
-86 -103 0
-87 -103 0
-88 -103 0
-89 -103 0
-90 -103 0
-91 -103 0
-92 -103 0
-93 -103 0
-94 -103 0
-95 -103 0
-86 -104 0
-87 -104 0
-88 -104 0
-89 -104 0
-90 -104 0
-91 -104 0
-92 -104 0
-93 -104 0
-94 -104 0
-95 -104 0
-87 -105 0
-88 -105 0
-89 -105 0
-90 -105 0
-91 -105 0
-92 -105 0
-93 -105 0
-94 -105 0
-95 -105 0
-88 -106 0
-89 -106 0
-90 -106 0
-91 -106 0
-92 -106 0
-93 -106 0
-94 -106 0
-95 -106 0
-89 -107 0
-90 -107 0
-91 -107 0
-92 -107 0
-93 -107 0
-94 -107 0
-95 -107 0
-90 -108 0
-91 -108 0
-92 -108 0
-93 -108 0
-94 -108 0
-95 -108 0
-91 -109 0
-92 -109 0
-93 -109 0
-94 -109 0
-95 -109 0
-92 -110 0
-93 -110 0
-94 -110 0
-95 -110 0
-93 -111 0
-94 -111 0
-95 -111 0
-94 -112 0
-95 -112 0
-95 -113 0
-20 1 0
-21 2 0
-22 3 0
-23 4 0
-24 5 0
-25 6 0
-26 7 0
-27 8 0
-28 9 0
-29 10 0
-30 11 0
-31 12 0
-32 13 0
-33 14 0
-34 15 0
-35 16 0
-36 17 0
-37 18 0
-38 19 0
-39 1 0
-40 2 0
-41 3 0
-42 4 0
-43 5 0
-44 6 0
-45 7 0
-46 8 0
-47 9 0
-48 10 0
-49 11 0
-50 12 0
-51 13 0
-52 14 0
-53 15 0
-54 16 0
-55 17 0
-56 18 0
-57 19 0
-58 1 0
-59 2 0
-60 3 0
-61 4 0
-62 5 0
-63 6 0
-64 7 0
-65 8 0
-66 9 0
-67 10 0
-68 11 0
-69 12 0
-70 13 0
-71 14 0
-72 15 0
-73 16 0
-74 17 0
-75 18 0
-76 19 0
-77 1 0
-78 2 0
-79 3 0
-80 4 0
-81 5 0
-82 6 0
-83 7 0
-84 8 0
-85 9 0
-86 10 0
-87 11 0
-88 12 0
-89 13 0
-90 14 0
-91 15 0
-92 16 0
-93 17 0
-94 18 0
-95 19 0
-96 1 0
-97 2 0
-98 3 0
-99 4 0
-100 5 0
-101 6 0
-102 7 0
-103 8 0
-104 9 0
-105 10 0
-106 11 0
-107 12 0
-108 13 0
-109 14 0
-110 15 0
-111 16 0
-112 17 0
-113 18 0
-114 19 0
-1 20 39 58 77 96 0
-2 21 40 59 78 97 0
-3 22 41 60 79 98 0
-4 23 42 61 80 99 0
-5 24 43 62 81 100 0
-6 25 44 63 82 101 0
-7 26 45 64 83 102 0
-8 27 46 65 84 103 0
-9 28 47 66 85 104 0
-10 29 48 67 86 105 0
-11 30 49 68 87 106 0
-12 31 50 69 88 107 0
-13 32 51 70 89 108 0
-14 33 52 71 90 109 0
-15 34 53 72 91 110 0
-16 35 54 73 92 111 0
-17 36 55 74 93 112 0
-18 37 56 75 94 113 0
-19 38 57 76 95 114 0
1 3 10 11 15 0
1 3 19 0
1 4 6 19 0
2 3 15 18 0
2 4 6 15 17 0
2 4 19 0
2 6 19 0
2 13 17 0
3 10 0
3 11 0
5 7 0
5 7 12 13 0
5 9 12 13 0
5 12 13 17 18 0
8 13 15 18 0
8 18 0
9 12 14 16 0
9 14 0
9 16 0
